
Gurobi 6.5.0 (linux64) logging started Sun Mar 20 20:38:13 2016


Gurobi 6.5.0 (linux64) logging started Sun Mar 20 20:42:56 2016


Gurobi 6.5.0 (linux64) logging started Sun Mar 20 20:45:33 2016


Gurobi 6.5.0 (linux64) logging started Sun Mar 20 20:46:48 2016


Gurobi 6.5.0 (linux64) logging started Sun Mar 20 21:50:58 2016


Gurobi 6.5.1 (linux64) logging started Sat Jul 30 00:09:17 2016


Gurobi 6.5.1 (linux64) logging started Sat Jul 30 00:09:24 2016


Gurobi 6.5.1 (linux64) logging started Sat Jul 30 00:09:38 2016


Gurobi 6.5.1 (linux64) logging started Sat Jul 30 00:09:43 2016


Gurobi 6.5.2 (linux64) logging started Wed Nov 16 12:21:51 2016

